SAT
54 -43 -69 84 12 25 -70 -42 8 -7 46 97 53 -24 -32 -23 88 85 -81 44 -1 -89 99 6 -13 52 -31 93 61 14 94 -57 78 91 95 45 37 -38 -3 82 -60 -63 -20 74 -29 -68 73 -49 80 -83 98 -9 -21 36 90 4 59 55 41 -47 -67 -30 18 15 71 -27 -96 -77 -34 75 -33 -40 72 79 58 -66 -11 -86 51 -19 -26 -50 35 10 64 -100 -5 39 16 22 48 2 92 -62 17 -56 -28 65 87 -76 0
